32	0

0	3	2	3	4
10	2	9	11
1	2	5	6
1	2	5	6
3	1	7
3	1	7
3	1	8
3	2	9	11
5	1	10
10	1	12
9	1	12
1	1	13
1	1	14
1	2	15	16
2	4	17	18	19	20
2	4	17	18	19	20
10	2	22	24
9	2	22	24
8	2	22	24
5	1	21
4	2	22	24
1	1	23
3	2	25	26
3	2	25	26
7	2	27	29
6	2	27	29
4	1	28
7	1	30
7	1	30
8	1	31
6	1	32
0	0
